(set-logic ALL)

(declare-datatypes ((_type_record_1_ 0)) (((_make__type_record_1_ (_field__rec_alloc Bool) (_field__rec_lowend (_ BitVec 2)) (_field__rec_highend (_ BitVec 2)) (_field__rec_nonce_true Bool)))))


(declare-datatypes ((_type_record_2_ 0)(_type_enum_5_ 0)(_type_enum_4_ 0)(_type_enum_3_ 0)) (((_make__type_record_2_ (_field__rec_value (_ BitVec 2)) (_field__rec_vtype _type_enum_5_) (_field__rec_h_base (_ BitVec 2)) (_field__rec_h_offset (_ BitVec 2)) (_field__rec_h_length (_ BitVec 2)) (_field__rec_enc_state_p _type_enum_4_) (_field__rec_key_p _type_enum_3_) (_field__rec_enc_state_d _type_enum_4_) (_field__rec_key_d _type_enum_3_) (_field__rec_ca_nonce_used Bool) (_field__rec_ca_nonce_true Bool)))((RAW) (HAN))((PLN) (GAR) (ENC))((NoKey) (AtKey) (ViKey))))

(declare-datatypes ((_type_record_6_ 0)) (((_make__type_record_6_ (_field__rec_valid Bool) (_field__rec_data_g _type_record_2_)))))

(declare-datatypes ((_type_enum_7_ 0)) (((MALLOC) (FREE) (LOAD) (STORE) (HANOP) (ARITHOP))))

(declare-datatypes ((_type_record_8_ 0)) (((_make__type_record_8_ (_field__rec_valid Bool) (_field__rec_allocg _type_record_2_) (_field__rec_newgmem (Array (_ BitVec 2) _type_record_2_)) (_field__rec_newamap (Array (_ BitVec 2) Bool))))))

(declare-sort opcode_t 0)

(declare-fun i3 () (_ BitVec 2))
(declare-fun const___ucld_153_slot_to_nonce_c3 ((_ BitVec 2) (_ BitVec 2)) Bool)
(declare-fun i2 () (_ BitVec 2))
(declare-fun i1 () (_ BitVec 2))
(declare-fun i4 () (_ BitVec 2))
(assert (let ((_let_9_ (forall ((i1 (_ BitVec 2))(i2 (_ BitVec 2))(i3 (_ BitVec 2))(i4 (_ BitVec 2)))  (=> (and (bvult i1 i2) (and (bvult i3 i4) (and (not (and (bvule i3 i1) (bvult i1 i4))) (not (and (bvule i1 i3) (bvult i3 i2)))))) (not (= (const___ucld_153_slot_to_nonce_c3 i1 i2) (const___ucld_153_slot_to_nonce_c3 i3 i4))))))) _let_9_))
(declare-fun initial_3___ucld_157_alloc_map_var () (Array (_ BitVec 2) Bool))
(declare-fun a () (_ BitVec 2))
(declare-fun initial_12___ucld_164_shadow_mem_var () (Array (_ BitVec 2) _type_record_1_))
(assert (let ((_let_10_ (forall ((a (_ BitVec 2)))  (and (not (select initial_3___ucld_157_alloc_map_var a)) (not (_field__rec_alloc (select initial_12___ucld_164_shadow_mem_var a))))))) _let_10_))
(declare-fun initial_21___ucld_173_ghost_lmap_var () (Array (_ BitVec 3) _type_record_2_))
(declare-fun a () (_ BitVec 3))
(assert (let ((_let_11_ (forall ((a (_ BitVec 3)))  (= (_field__rec_vtype (select initial_21___ucld_173_ghost_lmap_var a)) RAW)))) _let_11_))
(declare-fun initial_8___ucld_171_ghost_mem_var () (Array (_ BitVec 2) _type_record_2_))
(assert (let ((_let_12_ (forall ((a (_ BitVec 2)))  (= (_field__rec_vtype (select initial_8___ucld_171_ghost_mem_var a)) RAW)))) _let_12_))

(declare-fun const___ucld_147_ghost_to_nonce_c3 (_type_record_2_) Bool)
(declare-fun a2 () (_ BitVec 2))
(declare-fun const___ucld_151_ghost_to_addr_value_c3 (_type_record_2_) (_ BitVec 2))
(declare-fun initial_50_v () Bool)
(declare-fun initial_57___ucld_162_l2_var () (_ BitVec 3))
(declare-fun havoc_136___ucld_37_ret_ghost_addr_out () _type_record_2_)
(declare-fun initial_51___ucld_157_alloc_map_var () (Array (_ BitVec 2) Bool))
(declare-fun a1 () (_ BitVec 2))
(declare-fun initial_69___ucld_173_ghost_lmap_var () (Array (_ BitVec 3) _type_record_2_))
(declare-fun initial_54___ucld_167_action_var () _type_enum_7_)

(assert (let ((_let_49_ (select initial_69___ucld_173_ghost_lmap_var initial_57___ucld_162_l2_var)))
            (let ((_let_50_ (_field__rec_ca_nonce_used _let_49_))) 
                (let ((_let_51_ (_field__rec_ca_nonce_true _let_49_))) 
                    (let ((_let_52_ (_field__rec_enc_state_d _let_49_))) 
                        (let ((_let_53_ (_field__rec_h_length _let_49_))) 
                            (let ((_let_54_ (_field__rec_h_offset _let_49_))) 
                                (let ((_let_55_ (_field__rec_h_base _let_49_))) 
                                    (let ((_let_56_ (_field__rec_vtype _let_49_))) 
                                        (let ((_let_57_ (_field__rec_value _let_49_))) 
                                            (let ((_let_58_ (_field__rec_vtype havoc_136___ucld_37_ret_ghost_addr_out))) 
                                                (let ((_let_59_ (_field__rec_h_base havoc_136___ucld_37_ret_ghost_addr_out))) 
                                                    (let ((_let_60_ (_field__rec_h_offset havoc_136___ucld_37_ret_ghost_addr_out))) 
                                                        (let ((_let_61_ (_field__rec_h_length havoc_136___ucld_37_ret_ghost_addr_out))) 
                                                            (let ((_let_62_ (_field__rec_enc_state_p havoc_136___ucld_37_ret_ghost_addr_out))) 
                                                                (let ((_let_63_ (_field__rec_key_p havoc_136___ucld_37_ret_ghost_addr_out))) (let ((_let_64_ (_field__rec_enc_state_d havoc_136___ucld_37_ret_ghost_addr_out))) (let ((_let_65_ (_field__rec_key_d havoc_136___ucld_37_ret_ghost_addr_out))) (let ((_let_66_ (_field__rec_ca_nonce_used havoc_136___ucld_37_ret_ghost_addr_out))) (let ((_let_67_ (_field__rec_ca_nonce_true havoc_136___ucld_37_ret_ghost_addr_out))) (let ((_let_68_ (_make__type_record_2_ _let_57_ _let_58_ _let_59_ _let_60_ _let_61_ _let_62_ _let_63_ _let_64_ _let_65_ _let_66_ _let_67_))) (let ((_let_69_ (_field__rec_value _let_68_))) (let ((_let_70_ (_field__rec_h_base _let_68_))) (let ((_let_71_ (_field__rec_h_offset _let_68_))) (let ((_let_72_ (_field__rec_h_length _let_68_))) (let ((_let_73_ (_field__rec_enc_state_p _let_68_))) (let ((_let_74_ (_field__rec_key_p _let_68_))) (let ((_let_75_ (_field__rec_enc_state_d _let_68_))) (let ((_let_76_ (_field__rec_key_d _let_68_))) (let ((_let_77_ (_field__rec_ca_nonce_used _let_68_))) (let ((_let_78_ (_field__rec_ca_nonce_true _let_68_))) (let ((_let_79_ (_make__type_record_2_ _let_69_ _let_56_ _let_70_ _let_71_ _let_72_ _let_73_ _let_74_ _let_75_ _let_76_ _let_77_ _let_78_))) (let ((_let_80_ (_field__rec_value _let_79_))) (let ((_let_81_ (_field__rec_vtype _let_79_))) (let ((_let_82_ (_field__rec_h_offset _let_79_))) (let ((_let_83_ (_field__rec_h_length _let_79_))) (let ((_let_84_ (_field__rec_enc_state_p _let_79_))) (let ((_let_85_ (_field__rec_key_p _let_79_))) (let ((_let_86_ (_field__rec_enc_state_d _let_79_))) (let ((_let_87_ (_field__rec_key_d _let_79_))) (let ((_let_88_ (_field__rec_ca_nonce_used _let_79_))) (let ((_let_89_ (_field__rec_ca_nonce_true _let_79_))) (let ((_let_90_ (_make__type_record_2_ _let_80_ _let_81_ _let_55_ _let_82_ _let_83_ _let_84_ _let_85_ _let_86_ _let_87_ _let_88_ _let_89_))) (let ((_let_91_ (_field__rec_value _let_90_))) (let ((_let_92_ (_field__rec_vtype _let_90_))) (let ((_let_93_ (_field__rec_h_base _let_90_))) (let ((_let_94_ (_field__rec_h_length _let_90_))) (let ((_let_95_ (_field__rec_enc_state_p _let_90_))) (let ((_let_96_ (_field__rec_key_p _let_90_))) (let ((_let_97_ (_field__rec_enc_state_d _let_90_))) (let ((_let_98_ (_field__rec_key_d _let_90_))) (let ((_let_99_ (_field__rec_ca_nonce_used _let_90_))) (let ((_let_100_ (_field__rec_ca_nonce_true _let_90_))) (let ((_let_101_ (_make__type_record_2_ _let_91_ _let_92_ _let_93_ _let_54_ _let_94_ _let_95_ _let_96_ _let_97_ _let_98_ _let_99_ _let_100_))) (let ((_let_102_ (_field__rec_value _let_101_))) (let ((_let_103_ (_field__rec_vtype _let_101_))) (let ((_let_104_ (_field__rec_h_base _let_101_))) (let ((_let_105_ (_field__rec_h_offset _let_101_))) (let ((_let_106_ (_field__rec_enc_state_p _let_101_))) (let ((_let_107_ (_field__rec_key_p _let_101_))) (let ((_let_108_ (_field__rec_enc_state_d _let_101_))) (let ((_let_109_ (_field__rec_key_d _let_101_))) (let ((_let_110_ (_field__rec_ca_nonce_used _let_101_))) (let ((_let_111_ (_field__rec_ca_nonce_true _let_101_))) (let ((_let_112_ (_make__type_record_2_ _let_102_ _let_103_ _let_104_ _let_105_ _let_53_ _let_106_ _let_107_ _let_108_ _let_109_ _let_110_ _let_111_))) (let ((_let_113_ (_field__rec_value _let_112_))) (let ((_let_114_ (_field__rec_vtype _let_112_))) (let ((_let_115_ (_field__rec_h_base _let_112_))) (let ((_let_116_ (_field__rec_h_offset _let_112_))) (let ((_let_117_ (_field__rec_h_length _let_112_))) (let ((_let_118_ (_field__rec_enc_state_p _let_112_))) (let ((_let_119_ (_field__rec_key_p _let_112_))) (let ((_let_120_ (_field__rec_key_d _let_112_))) (let ((_let_121_ (_field__rec_ca_nonce_used _let_112_))) (let ((_let_122_ (_field__rec_ca_nonce_true _let_112_))) (let ((_let_123_ (_make__type_record_2_ _let_113_ _let_114_ _let_115_ _let_116_ _let_117_ _let_118_ _let_119_ _let_52_ _let_120_ _let_121_ _let_122_))) (let ((_let_124_ (_field__rec_value _let_123_))) (let ((_let_125_ (_field__rec_vtype _let_123_))) (let ((_let_126_ (_field__rec_h_base _let_123_))) (let ((_let_127_ (_field__rec_h_offset _let_123_))) (let ((_let_128_ (_field__rec_h_length _let_123_))) (let ((_let_129_ (_field__rec_key_p _let_123_))) (let ((_let_130_ (_field__rec_enc_state_d _let_123_))) (let ((_let_131_ (_field__rec_key_d _let_123_))) (let ((_let_132_ (_field__rec_ca_nonce_used _let_123_))) (let ((_let_133_ (_field__rec_ca_nonce_true _let_123_))) (let ((_let_134_ (_make__type_record_2_ _let_124_ _let_125_ _let_126_ _let_127_ _let_128_ GAR _let_129_ _let_130_ _let_131_ _let_132_ _let_133_))) (let ((_let_135_ (_make__type_record_2_ _let_124_ _let_125_ _let_126_ _let_127_ _let_128_ PLN _let_129_ _let_130_ _let_131_ _let_132_ _let_133_))) (let ((_let_136_ (_field__rec_key_p _let_49_))) (let ((_let_137_ (= _let_136_ ViKey))) (let ((_let_138_ (ite _let_137_ _let_135_ _let_134_))) (let ((_let_139_ (_field__rec_enc_state_p _let_49_))) (let ((_let_140_ (distinct _let_139_ ENC))) (let ((_let_141_ (ite _let_140_ _let_134_ _let_138_))) (let ((_let_142_ (_make__type_record_2_ _let_113_ _let_114_ _let_115_ _let_116_ _let_117_ _let_118_ _let_119_ GAR _let_120_ _let_121_ _let_122_))) (let ((_let_143_ (_field__rec_value _let_142_))) (let ((_let_144_ (_field__rec_vtype _let_142_))) (let ((_let_145_ (_field__rec_h_base _let_142_))) (let ((_let_146_ (_field__rec_h_offset _let_142_))) (let ((_let_147_ (_field__rec_h_length _let_142_))) (let ((_let_148_ (_field__rec_key_p _let_142_))) (let ((_let_149_ (_field__rec_enc_state_d _let_142_))) (let ((_let_150_ (_field__rec_key_d _let_142_))) (let ((_let_151_ (_field__rec_ca_nonce_used _let_142_))) (let ((_let_152_ (_field__rec_ca_nonce_true _let_142_))) (let ((_let_153_ (_make__type_record_2_ _let_143_ _let_144_ _let_145_ _let_146_ _let_147_ GAR _let_148_ _let_149_ _let_150_ _let_151_ _let_152_))) (let ((_let_154_ (distinct _let_52_ PLN))) (let ((_let_155_ (ite _let_154_ _let_153_ _let_141_))) (let ((_let_156_ (_field__rec_value _let_155_))) (let ((_let_157_ (_field__rec_vtype _let_155_))) (let ((_let_158_ (_field__rec_h_base _let_155_))) (let ((_let_159_ (_field__rec_h_offset _let_155_))) (let ((_let_160_ (_field__rec_h_length _let_155_))) (let ((_let_161_ (_field__rec_enc_state_p _let_155_))) (let ((_let_162_ (_field__rec_enc_state_d _let_155_))) (let ((_let_163_ (_field__rec_key_d _let_155_))) (let ((_let_164_ (_field__rec_ca_nonce_used _let_155_))) (let ((_let_165_ (_field__rec_ca_nonce_true _let_155_))) (let ((_let_166_ (_make__type_record_2_ _let_156_ _let_157_ _let_158_ _let_159_ _let_160_ _let_161_ NoKey _let_162_ _let_163_ _let_164_ _let_165_))) (let ((_let_167_ (_field__rec_value _let_166_))) (let ((_let_168_ (_field__rec_vtype _let_166_))) (let ((_let_169_ (_field__rec_h_base _let_166_))) (let ((_let_170_ (_field__rec_h_offset _let_166_))) (let ((_let_171_ (_field__rec_h_length _let_166_))) (let ((_let_172_ (_field__rec_enc_state_p _let_166_))) (let ((_let_173_ (_field__rec_key_p _let_166_))) (let ((_let_174_ (_field__rec_enc_state_d _let_166_))) (let ((_let_175_ (_field__rec_ca_nonce_used _let_166_))) (let ((_let_176_ (_field__rec_ca_nonce_true _let_166_))) (let ((_let_177_ (_make__type_record_2_ _let_167_ _let_168_ _let_169_ _let_170_ _let_171_ _let_172_ _let_173_ _let_174_ NoKey _let_175_ _let_176_))) (let ((_let_178_ (_field__rec_value _let_177_))) (let ((_let_179_ (_field__rec_vtype _let_177_))) (let ((_let_180_ (_field__rec_h_base _let_177_))) (let ((_let_181_ (_field__rec_h_offset _let_177_))) (let ((_let_182_ (_field__rec_h_length _let_177_))) (let ((_let_183_ (_field__rec_enc_state_p _let_177_))) (let ((_let_184_ (_field__rec_key_p _let_177_))) (let ((_let_185_ (_field__rec_enc_state_d _let_177_))) (let ((_let_186_ (_field__rec_key_d _let_177_))) (let ((_let_187_ (_field__rec_ca_nonce_used _let_177_))) (let ((_let_188_ (_make__type_record_2_ _let_178_ _let_179_ _let_180_ _let_181_ _let_182_ _let_183_ _let_184_ _let_185_ _let_186_ _let_187_ _let_51_))) (let ((_let_189_ (_field__rec_value _let_188_))) (let ((_let_190_ (_field__rec_vtype _let_188_))) (let ((_let_191_ (_field__rec_h_base _let_188_))) (let ((_let_192_ (_field__rec_h_offset _let_188_))) (let ((_let_193_ (_field__rec_h_length _let_188_))) (let ((_let_194_ (_field__rec_enc_state_p _let_188_))) (let ((_let_195_ (_field__rec_key_p _let_188_))) (let ((_let_196_ (_field__rec_enc_state_d _let_188_))) (let ((_let_197_ (_field__rec_key_d _let_188_))) (let ((_let_198_ (_field__rec_ca_nonce_true _let_188_))) (let ((_let_199_ (_make__type_record_2_ _let_189_ _let_190_ _let_191_ _let_192_ _let_193_ _let_194_ _let_195_ _let_196_ _let_197_ _let_50_ _let_198_))) (let ((_let_200_ (const___ucld_151_ghost_to_addr_value_c3 _let_199_))) (let ((_let_201_ (_field__rec_value _let_199_))) (let ((_let_202_ (= _let_201_ _let_200_))) (let ((_let_203_ (_field__rec_h_length _let_199_))) (let ((_let_204_ (_field__rec_h_base _let_199_))) (let ((_let_205_ (bvadd _let_204_ _let_203_))) (let ((_let_206_ (const___ucld_153_slot_to_nonce_c3 _let_204_ _let_205_))) (let ((_let_207_ (const___ucld_147_ghost_to_nonce_c3 _let_199_))) (let ((_let_208_ (= _let_207_ _let_206_))) (let ((_let_209_ (and _let_208_ _let_202_))) (let ((_let_210_ (_field__rec_enc_state_d _let_199_))) (let ((_let_211_ (= _let_210_ PLN))) (let ((_let_212_ (_field__rec_vtype _let_199_))) (let ((_let_213_ (= _let_212_ HAN))) (let ((_let_214_ (and _let_213_ _let_211_))) (let ((_let_215_ (=> _let_214_ _let_209_))) (let ((_let_216_ (forall ((a1 (_ BitVec 2)))  (forall ((a2 (_ BitVec 2)))  (=> (bvult a1 a2) (distinct _let_207_ (const___ucld_153_slot_to_nonce_c3 a1 a2))))))) (let ((_let_217_ (distinct _let_210_ PLN))) (let ((_let_218_ (distinct _let_212_ HAN))) (let ((_let_219_ (or _let_218_ _let_217_))) (let ((_let_220_ (=> _let_219_ _let_216_))) (let ((_let_221_ (and _let_220_ _let_215_))) (let ((_let_222_ (= initial_54___ucld_167_action_var LOAD))) (let ((_let_223_ (select initial_51___ucld_157_alloc_map_var _let_200_))) (let ((_let_224_ (not _let_223_))) (let ((_let_225_ (not _let_224_))) (let ((_let_226_ (and true _let_225_))) (let ((_let_227_ (and _let_226_ _let_222_))) (let ((_let_228_ (and _let_227_ initial_50_v))) (let ((_let_229_ (=> _let_228_ _let_221_))) _let_229_))))))))))))))))))))))))))))))))))))))))))))))))))))))))))))))))))))))))))))))))))))))))))))))))))))))))))))))))))))))))))))))))))))))))))))))))))))))))))))))))))))))))))))))))))))))